n = 63;
k = 2;
roles = [
{g, d},
{m, f},
{d, g},
{d, f},
{m, f},
{m, d},
{g, m},
{m, f},
{f, d},
{m, f},
{g, m},
{g, f},
{d, f},
{f, m},
{m, f},
{m, f},
{f, m},
{m, f},
{f, m},
{g, f},
{f, d},
{m, f},
{g, d},
{g, m},
{d, g},
{f, d},
{m, d},
{g, m},
{f, d},
{m, f},
{m, f},
{g, f},
{f, d},
{g, f},
{m, f},
{f, d},
{g, d},
{g, m},
{f, m},
{d, g},
{f, m},
{m, f},
{d, f},
{f, g},
{g, m},
{d, f},
{f, m},
{d, g},
{g, m},
{g, f},
{g, m},
{d, m},
{f, d},
{f, d},
{g, d},
{f, d},
{g, f},
{d, f},
{g, f},
{f, d},
{g, f},
{g, d},
{g, f}
];
num_pairs = 2;
player1 = [42, 12];
player2 = [17, 24];
